nodes = 113;
edges = 472;
starts = [1, 1, 2, 2, 3, 4, 5, 6, 6, 6, 6, 7, 7, 8, 9, 10, 11, 12, 12, 12, 13, 13, 13, 13, 14, 14, 15, 15, 15, 16, 16, 16, 17, 17, 18, 18, 18, 18, 19, 20, 21, 21, 21, 22, 22, 23, 24, 24, 24, 24, 25, 25, 26, 26, 27, 27, 28, 28, 28, 29, 30, 30, 30, 31, 31, 32, 32, 33, 33, 34, 34, 34, 35, 35, 36, 36, 37, 37, 38, 39, 39, 40, 40, 41, 41, 41, 42, 43, 43, 44, 45, 45, 46, 46, 47, 47, 48, 48, 49, 49, 50, 50, 51, 51, 52, 53, 53, 54, 54, 55, 56, 57, 57, 58, 58, 58, 59, 59, 60, 60, 61, 61, 62, 62, 63, 63, 63, 64, 64, 65, 65, 66, 66, 66, 67, 67, 68, 68, 69, 69, 70, 70, 71, 71, 71, 72, 72, 73, 74, 74, 74, 75, 75, 76, 76, 77, 77, 77, 78, 79, 79, 79, 80, 80, 80, 81, 81, 81, 82, 82, 82, 82, 83, 83, 83, 84, 84, 84, 85, 86, 86, 87, 88, 88, 89, 89, 89, 90, 91, 91, 91, 92, 92, 92, 93, 94, 94, 95, 96, 96, 97, 97, 97, 98, 98, 99, 99, 100, 100, 101, 101, 101, 102, 102, 102, 103, 103, 104, 104, 105, 105, 106, 106, 107, 107, 108, 109, 109, 110, 110, 110, 110, 111, 111, 112, 113, 12, 64, 26, 98, 42, 51, 70, 23, 74, 97, 100, 8, 60, 7, 76, 33, 99, 1, 22, 28, 18, 71, 74, 94, 17, 53, 66, 81, 84, 21, 41, 45, 14, 107, 13, 77, 83, 102, 111, 95, 16, 22, 64, 12, 66, 6, 57, 77, 80, 110, 30, 69, 3, 27, 26, 98, 12, 80, 81, 30, 10, 25, 31, 29, 56, 84, 89, 4, 51, 35, 57, 110, 34, 112, 44, 95, 73, 96, 31, 11, 40, 11, 52, 16, 32, 71, 43, 49, 88, 65, 39, 76, 38, 61, 9, 86, 49, 88, 48, 50, 46, 51, 21, 45, 59, 54, 103, 17, 53, 29, 55, 24, 58, 35, 57, 108, 41, 67, 62, 106, 38, 56, 63, 91, 8, 60, 93, 1, 21, 47, 59, 15, 16, 22, 37, 44, 20, 87, 4, 10, 5, 34, 13, 41, 67, 19, 90, 72, 6, 13, 97, 68, 87, 48, 50, 18, 24, 85, 82, 81, 82, 84, 24, 28, 82, 15, 28, 79, 78, 79, 80, 83, 18, 82, 89, 15, 32, 79, 77, 9, 76, 36, 3, 27, 32, 71, 83, 92, 63, 75, 92, 23, 91, 94, 63, 13, 92, 44, 19, 73, 6, 74, 101, 2, 104, 52, 59, 6, 105, 97, 102, 105, 18, 101, 109, 2, 104, 54, 103, 100, 101, 14, 107, 62, 106, 58, 102, 110, 24, 34, 109, 113, 90, 94, 5, 110];
ends = [12, 64, 26, 98, 42, 51, 70, 23, 74, 97, 100, 8, 60, 7, 76, 33, 99, 1, 22, 28, 18, 71, 74, 94, 17, 53, 66, 81, 84, 21, 41, 45, 14, 107, 13, 77, 83, 102, 111, 95, 16, 22, 64, 12, 66, 6, 57, 77, 80, 110, 30, 69, 3, 27, 26, 98, 12, 80, 81, 30, 10, 25, 31, 29, 56, 84, 89, 4, 51, 35, 57, 110, 34, 112, 44, 95, 73, 96, 31, 11, 40, 11, 52, 16, 32, 71, 43, 49, 88, 65, 39, 76, 38, 61, 9, 86, 49, 88, 48, 50, 46, 51, 21, 45, 59, 54, 103, 17, 53, 29, 55, 24, 58, 35, 57, 108, 41, 67, 62, 106, 38, 56, 63, 91, 8, 60, 93, 1, 21, 47, 59, 15, 16, 22, 37, 44, 20, 87, 4, 10, 5, 34, 13, 41, 67, 19, 90, 72, 6, 13, 97, 68, 87, 48, 50, 18, 24, 85, 82, 81, 82, 84, 24, 28, 82, 15, 28, 79, 78, 79, 80, 83, 18, 82, 89, 15, 32, 79, 77, 9, 76, 36, 3, 27, 32, 71, 83, 92, 63, 75, 92, 23, 91, 94, 63, 13, 92, 44, 19, 73, 6, 74, 101, 2, 104, 52, 59, 6, 105, 97, 102, 105, 18, 101, 109, 2, 104, 54, 103, 100, 101, 14, 107, 62, 106, 58, 102, 110, 24, 34, 109, 113, 90, 94, 5, 110, 1, 1, 2, 2, 3, 4, 5, 6, 6, 6, 6, 7, 7, 8, 9, 10, 11, 12, 12, 12, 13, 13, 13, 13, 14, 14, 15, 15, 15, 16, 16, 16, 17, 17, 18, 18, 18, 18, 19, 20, 21, 21, 21, 22, 22, 23, 24, 24, 24, 24, 25, 25, 26, 26, 27, 27, 28, 28, 28, 29, 30, 30, 30, 31, 31, 32, 32, 33, 33, 34, 34, 34, 35, 35, 36, 36, 37, 37, 38, 39, 39, 40, 40, 41, 41, 41, 42, 43, 43, 44, 45, 45, 46, 46, 47, 47, 48, 48, 49, 49, 50, 50, 51, 51, 52, 53, 53, 54, 54, 55, 56, 57, 57, 58, 58, 58, 59, 59, 60, 60, 61, 61, 62, 62, 63, 63, 63, 64, 64, 65, 65, 66, 66, 66, 67, 67, 68, 68, 69, 69, 70, 70, 71, 71, 71, 72, 72, 73, 74, 74, 74, 75, 75, 76, 76, 77, 77, 77, 78, 79, 79, 79, 80, 80, 80, 81, 81, 81, 82, 82, 82, 82, 83, 83, 83, 84, 84, 84, 85, 86, 86, 87, 88, 88, 89, 89, 89, 90, 91, 91, 91, 92, 92, 92, 93, 94, 94, 95, 96, 96, 97, 97, 97, 98, 98, 99, 99, 100, 100, 101, 101, 101, 102, 102, 102, 103, 103, 104, 104, 105, 105, 106, 106, 107, 107, 108, 109, 109, 110, 110, 110, 110, 111, 111, 112, 113];
weights = [287, 744, 231, 14, 9, 126, 16, 277, 82, 78, 384, 11, 571, 11, 347, 198, 127, 287, 539, 977, 470, 794, 621, 213, 15, 66, 505, 214, 197, 14, 828, 356, 15, 136, 470, 536, 465, 707, 60, 193, 14, 547, 538, 539, 14, 277, 765, 593, 441, 560, 9, 359, 202, 13, 13, 229, 977, 456, 371, 18, 497, 9, 17, 14, 10, 14, 15, 83, 204, 18, 604, 768, 18, 126, 272, 124, 339, 177, 286, 329, 188, 144, 378, 828, 440, 9, 14, 246, 10, 12, 78, 20, 441, 300, 239, 103, 8, 246, 8, 607, 164, 20, 360, 9, 109, 16, 323, 66, 16, 10, 14, 765, 19, 608, 19, 623, 182, 10, 15, 207, 142, 427, 20, 595, 570, 16, 175, 744, 538, 152, 18, 505, 545, 14, 159, 19, 215, 197, 420, 140, 16, 959, 794, 9, 179, 114, 213, 135, 82, 621, 41, 289, 483, 607, 9, 536, 593, 234, 283, 178, 314, 301, 441, 456, 460, 214, 371, 178, 283, 314, 460, 410, 465, 410, 219, 197, 14, 301, 234, 136, 482, 89, 14, 208, 15, 441, 219, 19, 608, 25, 16, 726, 16, 66, 175, 213, 66, 148, 414, 164, 78, 41, 571, 14, 252, 106, 210, 384, 382, 571, 409, 80, 707, 409, 612, 257, 14, 323, 14, 382, 80, 131, 13, 206, 13, 623, 612, 496, 560, 768, 496, 629, 43, 58, 828, 629, 287, 744, 231, 14, 9, 126, 16, 277, 82, 78, 384, 11, 571, 11, 347, 198, 127, 287, 539, 977, 470, 794, 621, 213, 15, 66, 505, 214, 197, 14, 828, 356, 15, 136, 470, 536, 465, 707, 60, 193, 14, 547, 538, 539, 14, 277, 765, 593, 441, 560, 9, 359, 202, 13, 13, 229, 977, 456, 371, 18, 497, 9, 17, 14, 10, 14, 15, 83, 204, 18, 604, 768, 18, 126, 272, 124, 339, 177, 286, 329, 188, 144, 378, 828, 440, 9, 14, 246, 10, 12, 78, 20, 441, 300, 239, 103, 8, 246, 8, 607, 164, 20, 360, 9, 109, 16, 323, 66, 16, 10, 14, 765, 19, 608, 19, 623, 182, 10, 15, 207, 142, 427, 20, 595, 570, 16, 175, 744, 538, 152, 18, 505, 545, 14, 159, 19, 215, 197, 420, 140, 16, 959, 794, 9, 179, 114, 213, 135, 82, 621, 41, 289, 483, 607, 9, 536, 593, 234, 283, 178, 314, 301, 441, 456, 460, 214, 371, 178, 283, 314, 460, 410, 465, 410, 219, 197, 14, 301, 234, 136, 482, 89, 14, 208, 15, 441, 219, 19, 608, 25, 16, 726, 16, 66, 175, 213, 66, 148, 414, 164, 78, 41, 571, 14, 252, 106, 210, 384, 382, 571, 409, 80, 707, 409, 612, 257, 14, 323, 14, 382, 80, 131, 13, 206, 13, 623, 612, 496, 560, 768, 496, 629, 43, 58, 828, 629];
start = 76;
end= 35;
tasks = 6;
task = array2d(1..tasks, 1..nodes, [0, 0, 0, 0, 0, 0, 0, 0, 0, 0, 0, 0, 0, 1, 0, 0, 0, 0, 0, 0, 0, 0, 0, 0, 0, 0, 0, 0, 0, 0, 0, 0, 0, 0, 0, 0, 0, 0, 0, 0, 0, 0, 0, 0, 0, 0, 0, 0, 0, 0, 0, 0, 0, 0, 0, 0, 0, 0, 0, 0, 0, 0, 0, 0, 0, 0, 0, 0, 0, 0, 0, 0, 0, 0, 0, 0, 0, 0, 0, 0, 0, 0, 0, 0, 0, 0, 0, 0, 0, 0, 0, 0, 0, 0, 0, 0, 0, 0, 0, 0, 0, 0, 0, 0, 0, 0, 0, 0, 0, 0, 0, 0, 0, 0, 0, 0, 0, 0, 0, 0, 0, 0, 0, 0, 0, 0, 0, 0, 0, 1, 0, 0, 0, 0, 0, 0, 0, 0, 0, 0, 0, 0, 0, 0, 0, 0, 0, 0, 0, 0, 0, 0, 0, 0, 0, 0, 0, 0, 0, 0, 0, 0, 0, 0, 0, 0, 0, 0, 0, 0, 0, 0, 0, 0, 0, 0, 0, 0, 0, 0, 0, 0, 0, 0, 0, 0, 0, 0, 0, 0, 0, 0, 0, 0, 0, 0, 0, 0, 0, 0, 0, 0, 0, 0, 0, 0, 0, 0, 0, 0, 0, 0, 0, 0, 0, 0, 0, 0, 0, 0, 0, 0, 0, 0, 0, 0, 0, 0, 0, 0, 0, 0, 0, 0, 0, 0, 0, 0, 0, 0, 0, 0, 0, 0, 0, 0, 0, 0, 0, 0, 0, 0, 0, 0, 0, 0, 0, 0, 0, 0, 0, 0, 0, 0, 0, 0, 0, 0, 0, 0, 0, 0, 0, 0, 0, 0, 0, 0, 0, 0, 0, 0, 0, 0, 0, 0, 0, 1, 0, 0, 0, 0, 0, 0, 0, 0, 0, 0, 0, 0, 0, 0, 0, 0, 0, 0, 0, 0, 0, 0, 0, 0, 0, 0, 0, 0, 0, 0, 0, 0, 0, 0, 0, 0, 0, 0, 0, 0, 0, 0, 0, 0, 0, 0, 0, 0, 0, 0, 0, 0, 0, 0, 0, 0, 0, 0, 0, 0, 0, 0, 0, 0, 0, 0, 0, 0, 0, 0, 0, 0, 0, 0, 0, 0, 0, 0, 0, 0, 0, 0, 0, 0, 0, 0, 0, 0, 0, 0, 0, 0, 0, 0, 0, 0, 0, 0, 0, 0, 0, 0, 0, 0, 0, 0, 0, 0, 0, 0, 0, 0, 0, 0, 0, 0, 0, 0, 0, 0, 0, 1, 0, 0, 0, 0, 0, 0, 0, 0, 0, 0, 0, 0, 0, 0, 0, 0, 0, 0, 0, 0, 0, 0, 0, 0, 0, 0, 0, 0, 0, 0, 0, 0, 0, 0, 0, 0, 0, 0, 0, 0, 0, 0, 0, 0, 0, 0, 0, 0, 0, 0, 0, 0, 0, 0, 0, 0, 0, 0, 0, 0, 0, 0, 0, 0, 0, 0, 0, 0, 0, 0, 0, 0, 0, 0, 0, 0, 0, 0, 0, 0, 0, 0, 0, 0, 0, 0, 0, 0, 0, 0, 0, 0, 0, 0, 0, 0, 0, 0, 0, 0, 0, 0, 0, 0, 0, 0, 0, 0, 0, 0, 0, 0, 0, 0, 0, 1, 0, 0, 0, 0, 0, 0, 0, 0, 0, 0, 0, 0, 0, 0, 0, 0, 0, 0, 0, 0, 0, 0, 0, 0, 0, 0, 0, 0, 0, 0, 0, 0, 0, 0, 0, 0, 0, 0, 0, 0, 0, 0, 0, 0, 0, 0, 0, 0, 0, 0, 0, 0, 0, 0, 0, 0, 0, 0, 0, 0, 0, 0, 0, 0, 0, 0, 0, 0, 0, 0, 0, 0, 0, 0, 0, 0, 0, 0, 0, 0, 0, 0, 0, 0, 0, 0, 0, 0, 0, 0, 0, 0, 0, 0, 0, 0, 0, 0, 0, 0, 0, 0, 0, 0, 0, 0, 0, 0, 0, 0, 0, 0, 0, 0, 0, 0, 0, 0, 0, 0, 0, 0, 1, 0, 0, 0, 0, 0, 0, 0, 0, 0, 0, 0, 0, 0, 0, 0, 0, 0, 0, 0, 0, 0, 0, 0, 0, 0, 0, 0, 0, 0]);
